
  22   10
  10   10   10   10   10   10   10   10   10   10

   0   0   0   0   0   0   0   0   0   0   0   1 2 
   8   0   0  10   0   0   0   0   0   0   0   1 3 
   8   0   0   0   0   0   0   0  10   0   0   2 8 4 
   4   0   0   0   0   0   0  10   0   0   0   2 6 5 
  10   0   0   0  10   0   0   0   0   0   0   3 14 13 7 
   7   0   0   0   0   0  10   0   0   0   0   2 13 10 
   1   0  10   0   0   0   0   0   0   0   0   1 9 
   7   0   0   0   0   0   0   0  10   0   0   2 14 11 
   7   0   0   0   0   0   0   0  10   0   0   1 10 
   2   0   0   0   0  10   0   0   0   0   0   1 11 
   2   0   0   0   0   0   0   0   0   0  10   2 17 12 
   8   0   0   0   0   0   0   0   0  10   0   2 21 15 
   8   0   0   0   0   0   0   0   0  10   0   2 21 15 
   1   0   0   0   0   0   0   0   0   0  10   2 21 16 
   9   0   0   0   0   0   0   0   0  10   0   1 16 
   6   0  10   0   0   0   0   0   0   0   0   1 18 
   6   0   0   0   0  10   0   0   0   0   0   1 18 
   2   0   0   0   0   0   0   0  10   0   0   1 19 
   1   0  10   0   0   0   0   0   0   0   0   1 20 
   9   0   0   0   0   0   0   0  10   0   0   1 22
   9  10   0   0   0   0   0   0   0   0   0   1 22
   0   0   0   0   0   0   0   0   0   0   0   0 
